N = 10;
Dist = [|0, 966, 581, 898, 736, 323, 218, 672, 512, 406
| 966, 0, 906, 937, 659, 470, 147, 272, 143, 253
| 581, 906, 0, 763, 575, 552, 270, 765, 599, 439
| 898, 937, 763, 0, 920, 598, 409, 371, 225, 142
| 736, 659, 575, 920, 0, 522, 506, 94, 774, 49
| 323, 470, 552, 598, 522, 0, 882, 113, 157, 643
| 218, 147, 270, 409, 506, 882, 0, 164, 812, 697
| 672, 272, 765, 371, 94, 113, 164, 0, 433, 611
| 512, 143, 599, 225, 774, 157, 812, 433, 0, 66
| 406, 253, 439, 142, 49, 643, 697, 611, 66, 0 |];